p cnf 371 770
1 0
2 0
3 0
4 0
5 0
6 0
7 0
8 0
9 0
10 0
-11 0
-12 13 0
-14 13 0
12 14 -13 0
1 -13 0
-1 13 0
-15 16 0
-17 16 0
15 17 -16 0
12 -16 0
-12 16 0
-18 19 0
-20 19 0
18 20 -19 0
15 -19 0
-15 19 0
-21 22 0
-23 22 0
21 23 -22 0
18 -22 0
-18 22 0
-24 25 0
-26 25 0
24 26 -25 0
21 -25 0
-21 25 0
-27 28 0
28 -29 0
27 29 -28 0
24 -28 0
-24 28 0
-30 31 0
31 -32 0
30 32 -31 0
27 -31 0
-27 31 0
-33 34 0
-35 34 0
33 35 -34 0
30 -34 0
-30 34 0
-36 37 0
-38 37 0
36 38 -37 0
33 -37 0
-33 37 0
-39 40 0
40 -41 0
39 41 -40 0
36 -40 0
-36 40 0
-42 43 0
43 -44 0
42 44 -43 0
39 -43 0
-39 43 0
-45 46 0
46 -47 0
45 47 -46 0
42 -46 0
-42 46 0
-48 49 0
-50 49 0
48 50 -49 0
45 -49 0
-45 49 0
-32 51 0
-35 51 0
-38 51 0
-41 51 0
-44 51 0
-47 51 0
-50 51 0
-52 51 0
53 0
48 -51 0
-48 51 0
-54 55 0
55 -56 0
54 56 -55 0
2 -55 0
-2 55 0
-57 58 0
-59 58 0
57 59 -58 0
54 -58 0
-54 58 0
-60 61 0
-62 61 0
60 62 -61 0
57 -61 0
-57 61 0
-63 64 0
64 -65 0
63 65 -64 0
60 -64 0
-60 64 0
-66 67 0
-68 67 0
66 68 -67 0
63 -67 0
-63 67 0
-69 70 0
70 -71 0
69 71 -70 0
66 -70 0
-66 70 0
-72 73 0
73 -74 0
72 74 -73 0
69 -73 0
-69 73 0
-75 76 0
76 -77 0
75 77 -76 0
72 -76 0
-72 76 0
-78 79 0
79 -80 0
78 80 -79 0
75 -79 0
-75 79 0
-68 81 0
-71 81 0
-74 81 0
-77 81 0
-80 81 0
-82 81 0
83 0
78 -81 0
-78 81 0
-84 85 0
-86 85 0
84 86 -85 0
3 -85 0
-3 85 0
-87 88 0
-89 88 0
87 89 -88 0
84 -88 0
-84 88 0
-90 91 0
-92 91 0
90 92 -91 0
87 -91 0
-87 91 0
-93 94 0
-95 94 0
93 95 -94 0
90 -94 0
-90 94 0
-96 97 0
-98 97 0
96 98 -97 0
93 -97 0
-93 97 0
-99 100 0
100 -101 0
99 101 -100 0
96 -100 0
-96 100 0
-102 103 0
-104 103 0
102 104 -103 0
99 -103 0
-99 103 0
-105 106 0
-107 106 0
105 107 -106 0
102 -106 0
-102 106 0
-108 109 0
-110 109 0
108 110 -109 0
105 -109 0
-105 109 0
-111 112 0
-113 112 0
111 113 -112 0
108 -112 0
-108 112 0
-114 115 0
115 -116 0
114 116 -115 0
111 -115 0
-111 115 0
-98 117 0
-101 117 0
-104 117 0
-107 117 0
-110 117 0
-113 117 0
-116 117 0
117 -118 0
119 0
114 -117 0
-114 117 0
-120 121 0
-122 121 0
120 122 -121 0
4 -121 0
-4 121 0
-123 124 0
-125 124 0
123 125 -124 0
120 -124 0
-120 124 0
-126 127 0
127 -128 0
126 128 -127 0
123 -127 0
-123 127 0
-129 130 0
-131 130 0
129 131 -130 0
126 -130 0
-126 130 0
-132 133 0
-134 133 0
132 134 -133 0
129 -133 0
-129 133 0
-135 136 0
136 -137 0
135 137 -136 0
132 -136 0
-132 136 0
-138 139 0
-140 139 0
138 140 -139 0
135 -139 0
-135 139 0
-141 142 0
142 -143 0
141 143 -142 0
138 -142 0
-138 142 0
-144 145 0
-146 145 0
144 146 -145 0
141 -145 0
-141 145 0
-147 148 0
-149 148 0
147 149 -148 0
144 -148 0
-144 148 0
-150 151 0
151 -152 0
150 152 -151 0
147 -151 0
-147 151 0
-153 154 0
154 -155 0
153 155 -154 0
150 -154 0
-150 154 0
-156 157 0
157 -158 0
156 158 -157 0
153 -157 0
-153 157 0
-143 159 0
-146 159 0
-149 159 0
-152 159 0
-155 159 0
-158 159 0
159 -160 0
161 0
156 -159 0
-156 159 0
-162 163 0
-164 163 0
162 164 -163 0
5 -163 0
-5 163 0
-165 166 0
-167 166 0
165 167 -166 0
162 -166 0
-162 166 0
-168 169 0
-170 169 0
168 170 -169 0
165 -169 0
-165 169 0
-171 172 0
172 -173 0
171 173 -172 0
168 -172 0
-168 172 0
-174 175 0
-176 175 0
174 176 -175 0
171 -175 0
-171 175 0
-177 178 0
178 -179 0
177 179 -178 0
174 -178 0
-174 178 0
-180 181 0
181 -182 0
180 182 -181 0
177 -181 0
-177 181 0
-183 184 0
-185 184 0
183 185 -184 0
180 -184 0
-180 184 0
-186 187 0
187 -188 0
186 188 -187 0
183 -187 0
-183 187 0
-189 190 0
-191 190 0
189 191 -190 0
186 -190 0
-186 190 0
-176 192 0
-179 192 0
-182 192 0
-185 192 0
-188 192 0
-191 192 0
-193 192 0
194 0
189 -192 0
-189 192 0
-195 196 0
-197 196 0
195 197 -196 0
6 -196 0
-6 196 0
-198 199 0
-200 199 0
198 200 -199 0
195 -199 0
-195 199 0
-201 202 0
-203 202 0
201 203 -202 0
198 -202 0
-198 202 0
-204 205 0
-206 205 0
204 206 -205 0
201 -205 0
-201 205 0
-207 208 0
-209 208 0
207 209 -208 0
204 -208 0
-204 208 0
-210 211 0
211 -212 0
210 212 -211 0
207 -211 0
-207 211 0
-213 214 0
-215 214 0
213 215 -214 0
210 -214 0
-210 214 0
-216 217 0
-218 217 0
216 218 -217 0
213 -217 0
-213 217 0
-219 220 0
-221 220 0
219 221 -220 0
216 -220 0
-216 220 0
-222 223 0
223 -224 0
222 224 -223 0
219 -223 0
-219 223 0
-212 225 0
-215 225 0
-218 225 0
-221 225 0
-224 225 0
225 -226 0
227 0
222 -225 0
-222 225 0
-228 229 0
229 -230 0
228 230 -229 0
7 -229 0
-7 229 0
-231 232 0
-233 232 0
231 233 -232 0
228 -232 0
-228 232 0
-234 235 0
-236 235 0
234 236 -235 0
231 -235 0
-231 235 0
-237 238 0
238 -239 0
237 239 -238 0
234 -238 0
-234 238 0
-240 241 0
-242 241 0
240 242 -241 0
237 -241 0
-237 241 0
-243 244 0
-245 244 0
243 245 -244 0
240 -244 0
-240 244 0
-246 247 0
247 -248 0
246 248 -247 0
243 -247 0
-243 247 0
-249 250 0
250 -251 0
249 251 -250 0
246 -250 0
-246 250 0
-252 253 0
-254 253 0
252 254 -253 0
249 -253 0
-249 253 0
-255 256 0
256 -257 0
255 257 -256 0
252 -256 0
-252 256 0
-258 259 0
-260 259 0
258 260 -259 0
255 -259 0
-255 259 0
-261 262 0
-263 262 0
261 263 -262 0
258 -262 0
-258 262 0
-264 265 0
265 -266 0
264 266 -265 0
261 -265 0
-261 265 0
-267 268 0
268 -269 0
267 269 -268 0
264 -268 0
-264 268 0
-254 270 0
-257 270 0
-260 270 0
-263 270 0
-266 270 0
-269 270 0
-271 270 0
272 0
267 -270 0
-267 270 0
-273 274 0
-275 274 0
273 275 -274 0
8 -274 0
-8 274 0
-276 277 0
277 -278 0
276 278 -277 0
273 -277 0
-273 277 0
-279 280 0
280 -281 0
279 281 -280 0
276 -280 0
-276 280 0
-150 282 0
-283 282 0
150 283 -282 0
279 -282 0
-279 282 0
-284 285 0
-286 285 0
284 286 -285 0
9 -285 0
-9 285 0
-287 288 0
-289 288 0
287 289 -288 0
284 -288 0
-284 288 0
-290 291 0
-292 291 0
290 292 -291 0
287 -291 0
-287 291 0
-293 294 0
-295 294 0
293 295 -294 0
290 -294 0
-290 294 0
-296 297 0
-298 297 0
296 298 -297 0
293 -297 0
-293 297 0
-299 300 0
300 -301 0
299 301 -300 0
296 -300 0
-296 300 0
-302 303 0
-304 303 0
302 304 -303 0
299 -303 0
-299 303 0
-305 306 0
306 -307 0
305 307 -306 0
302 -306 0
-302 306 0
-308 309 0
-310 309 0
308 310 -309 0
305 -309 0
-305 309 0
-311 312 0
312 -313 0
311 313 -312 0
308 -312 0
-308 312 0
-314 315 0
-316 315 0
314 316 -315 0
311 -315 0
-311 315 0
-317 318 0
-319 318 0
317 319 -318 0
314 -318 0
-314 318 0
-320 321 0
321 -322 0
320 322 -321 0
317 -321 0
-317 321 0
-307 323 0
-310 323 0
-313 323 0
-316 323 0
-319 323 0
-322 323 0
323 -324 0
325 0
320 -323 0
-320 323 0
-326 327 0
327 -328 0
326 328 -327 0
10 -327 0
-10 327 0
-329 330 0
-331 330 0
329 331 -330 0
326 -330 0
-326 330 0
-332 333 0
333 -334 0
332 334 -333 0
329 -333 0
-329 333 0
-335 336 0
-337 336 0
335 337 -336 0
332 -336 0
-332 336 0
-338 339 0
339 -340 0
338 340 -339 0
335 -339 0
-335 339 0
-341 342 0
-343 342 0
341 343 -342 0
338 -342 0
-338 342 0
-344 345 0
345 -346 0
344 346 -345 0
341 -345 0
-341 345 0
-347 348 0
-349 348 0
347 349 -348 0
344 -348 0
-344 348 0
-350 351 0
351 -352 0
350 352 -351 0
347 -351 0
-347 351 0
-353 354 0
354 -355 0
353 355 -354 0
350 -354 0
-350 354 0
-356 357 0
357 -358 0
356 358 -357 0
353 -357 0
-353 357 0
-343 359 0
-346 359 0
-349 359 0
-352 359 0
-355 359 0
-358 359 0
-360 359 0
361 0
356 -359 0
-356 359 0
11 -362 0
-11 362 0
-363 -14 0
-363 -17 0
-363 -20 0
-363 -23 0
-363 -26 0
29 -363 0
32 -363 0
-363 -35 0
-363 -38 0
41 -363 0
44 -363 0
47 -363 0
-363 -50 0
-363 -52 0
56 -363 0
-363 -59 0
-363 -62 0
65 -363 0
-363 -68 0
71 -363 0
74 -363 0
77 -363 0
80 -363 0
-363 -82 0
-363 -86 0
-363 -89 0
-363 -92 0
-363 -95 0
-363 -98 0
101 -363 0
-363 -104 0
-363 -107 0
-363 -110 0
-363 -113 0
116 -363 0
118 -363 0
-363 -122 0
-363 -125 0
128 -363 0
-363 -131 0
-363 -134 0
137 -363 0
-363 -140 0
143 -363 0
-363 -146 0
-363 -149 0
152 -363 0
155 -363 0
158 -363 0
160 -363 0
-363 -164 0
-363 -167 0
-363 -170 0
173 -363 0
-363 -176 0
179 -363 0
182 -363 0
-363 -185 0
188 -363 0
-363 -191 0
-363 -193 0
-363 -197 0
-363 -200 0
-363 -203 0
-363 -206 0
-363 -209 0
212 -363 0
-363 -215 0
-363 -218 0
-363 -221 0
224 -363 0
226 -363 0
230 -363 0
-363 -233 0
-363 -236 0
239 -363 0
-363 -242 0
-363 -245 0
248 -363 0
251 -363 0
-363 -254 0
257 -363 0
-363 -260 0
-363 -263 0
266 -363 0
269 -363 0
-363 -271 0
-363 -275 0
278 -363 0
281 -363 0
-363 -283 0
-363 -286 0
-363 -289 0
-363 -292 0
-363 -295 0
-363 -298 0
301 -363 0
-363 -304 0
307 -363 0
-363 -310 0
313 -363 0
-363 -316 0
-363 -319 0
322 -363 0
324 -363 0
328 -363 0
-363 -331 0
334 -363 0
-363 -337 0
340 -363 0
-363 -343 0
346 -363 0
-363 -349 0
352 -363 0
355 -363 0
358 -363 0
-363 -360 0
-363 -362 0
363 0
-364 0
-365 0
-366 0
-367 0
-368 0
-369 0
-370 0
-371 0
